71
125
87	2
86	2
85	3
84	2
83	1
82	2
81	3
80	2
79	4
78	3
77	4
76	2
75	3
74	3
73	4
72	8
71	1
70	1
69	5
68	2
67	4
66	1
65	3
64	1
63	4
61	3
60	1
58	2
57	1
56	3
55	3
54	6
53	5
52	2
51	1
50	4
49	2
48	2
47	1
46	3
45	7
44	1
43	1
42	1
41	4
40	5
39	3
38	4
37	4
36	2
35	3
34	4
33	3
32	1
31	4
29	4
28	4
27	1
26	1
25	3
24	6
23	3
21	5
20	4
19	1
18	2
17	3
15	1
14	1
13	3
12	2
